(set-logic QF_SLIA)
(declare-fun var0 () String)
(assert (str.in_re var0 (re.++ ((_ re.loop 15 602) (re.++ (re.union (str.to_re "b") (re.union (str.to_re "*SN") (re.union (str.to_re "m>\u0022") (str.to_re "H")))) (re.++ (re.union (str.to_re "5:") (re.union (str.to_re "H>*") (re.union (str.to_re "0m~") (str.to_re "^")))) (re.++ (re.union (str.to_re "wU") (re.union (str.to_re "{(,") (re.union (str.to_re ">_c") (str.to_re "LaY")))) (re.union (str.to_re "F") (re.union (str.to_re "Pg") (re.union (str.to_re "4") (str.to_re "ubl")))))))) (re.++ ((_ re.loop 0 548) (re.++ (re.union (str.to_re "PFm") (re.union (str.to_re "-|o") (re.union (str.to_re ">") (str.to_re "DF")))) (re.++ (re.union (str.to_re "c") (re.union (str.to_re "N") (re.union (str.to_re "W=") (str.to_re "K")))) (re.++ (re.union (str.to_re "xdQ") (re.union (str.to_re "9") (re.union (str.to_re "M\\@") (str.to_re "Y")))) (re.union (str.to_re "4") (re.union (str.to_re "5") (re.union (str.to_re "Y2") (str.to_re "+j")))))))) (re.++ ((_ re.loop 19 383) (re.++ (re.union (str.to_re "90") (re.union (str.to_re "OMt") (re.union (str.to_re "2c") (str.to_re "^T")))) (re.++ (re.union (str.to_re "./") (re.union (str.to_re "m~") (re.union (str.to_re "Gp!") (str.to_re "D")))) (re.++ (re.union (str.to_re "``") (re.union (str.to_re "s") (re.union (str.to_re "\\") (str.to_re "`9e")))) (re.union (str.to_re "|") (re.union (str.to_re "IL") (re.union (str.to_re "BN") (str.to_re "5_`")))))))) ((_ re.loop 0 976) (re.++ (re.union (str.to_re "f") (re.union (str.to_re "P-") (re.union (str.to_re "*V") (str.to_re "fO=")))) (re.++ (re.union (str.to_re "r$j") (re.union (str.to_re "`") (re.union (str.to_re "%&") (str.to_re "UT%")))) (re.++ (re.union (str.to_re "\\O.") (re.union (str.to_re "p") (re.union (str.to_re "-") (str.to_re "[")))) (re.union (str.to_re "YZ") (re.union (str.to_re "{Y") (re.union (str.to_re "0%(") (str.to_re "\\~X")))))))))))))
(assert (not (str.in_re var0 (re.++ ((_ re.loop 5 470) (re.++ (re.union (str.to_re "Tz9") (re.union (str.to_re "I") (re.union (str.to_re "F") (str.to_re "78")))) (re.++ (re.union (str.to_re "X") (re.union (str.to_re "j'") (re.union (str.to_re ";") (str.to_re "{Z-")))) (re.++ (re.union (str.to_re "yY/") (re.union (str.to_re "Ma") (re.union (str.to_re "9i?") (str.to_re "0")))) (re.union (str.to_re "~ko") (re.union (str.to_re "$N") (re.union (str.to_re "3Jl") (str.to_re "R1")))))))) (re.++ ((_ re.loop 11 937) (re.++ (re.union (str.to_re "d}R") (re.union (str.to_re "gY>") (re.union (str.to_re "vG") (str.to_re "f.")))) (re.++ (re.union (str.to_re "*JF") (re.union (str.to_re "|a") (re.union (str.to_re "s4j") (str.to_re "p@")))) (re.++ (re.union (str.to_re "W") (re.union (str.to_re "}&") (re.union (str.to_re "yeh") (str.to_re ";A@")))) (re.union (str.to_re "3*") (re.union (str.to_re "|") (re.union (str.to_re "w6") (str.to_re "r")))))))) (re.++ ((_ re.loop 14 892) (re.++ (re.union (str.to_re "n{") (re.union (str.to_re "s[") (re.union (str.to_re "5%]") (str.to_re "~")))) (re.++ (re.union (str.to_re "r|") (re.union (str.to_re "0,") (re.union (str.to_re "N$") (str.to_re "r=K")))) (re.++ (re.union (str.to_re "\u0022s") (re.union (str.to_re "^4") (re.union (str.to_re "v-I") (str.to_re "k")))) (re.union (str.to_re "v\\g") (re.union (str.to_re "`U&") (re.union (str.to_re "\u0022") (str.to_re "0%")))))))) ((_ re.loop 9 498) (re.++ (re.union (str.to_re "X") (re.union (str.to_re "#") (re.union (str.to_re "~FT") (str.to_re "Z")))) (re.++ (re.union (str.to_re "fX") (re.union (str.to_re "F") (re.union (str.to_re "'") (str.to_re "YY#")))) (re.++ (re.union (str.to_re "</") (re.union (str.to_re "C") (re.union (str.to_re ",") (str.to_re "D1{")))) (re.union (str.to_re "h~g") (re.union (str.to_re "m|V") (re.union (str.to_re "Pc~") (str.to_re "&o"))))))))))))))
(assert (not (str.in_re var0 (re.++ (re.* re.allchar) (re.++ (re.union (str.to_re "<") (re.union (str.to_re ">") (re.union (str.to_re "'") (re.union (str.to_re "\u0022") (str.to_re "&"))))) (re.* re.allchar))))))
(assert (<= 50 (str.len var0)))
(check-sat)
(get-model)
